%chk=HCl_example.chk
#p HF chkbasis guess=read geom=allcheck nosymm int=nobasistransform

title


